4453
837
4077
2741
2101
5678
9758
9028
2719
7680
6606
2322
9315
908
10150
6389
1418
8345
3422
3956
3334
9040
9658
7567
396
639
5723
417
7769
10193
10164
2211
9766
2308
2754
1884
9816
7900
9768
1949
3480
942
9491
8868
1665
5343
3741
1761
9833
5853
